(define-sort Feature () Bool)
(declare-const f0 Feature)
(declare-const f28 Feature)
(declare-const f15 Feature)
(declare-const f19 Feature)
(declare-const f13 Feature)
(declare-const f23 Feature)
(declare-const f18 Feature)
(declare-const f29 Feature)
(declare-const f21 Feature)
(declare-const f20 Feature)
(declare-const f5 Feature)
(declare-const f10 Feature)
(declare-const f25 Feature)
(declare-const f17 Feature)
(declare-const f16 Feature)
(declare-const f24 Feature)
(declare-const f2 Feature)
(declare-const f12 Feature)
(declare-const f8 Feature)
(declare-const f4 Feature)
(declare-const f27 Feature)
(declare-const f11 Feature)
(declare-const f22 Feature)
(declare-const f1 Feature)
(declare-const f7 Feature)
(declare-const f9 Feature)
(declare-const f3 Feature)
(declare-const f14 Feature)
(declare-const f26 Feature)
(declare-const f6 Feature)

(assert f0)
(assert (and
   (=> f28 f0)
   (=> f15 f28)
   (=> f18 f23)
   (=> f29 f18)
   (= (or f13  f23  f21 ) f19)
   (not (and f13 f23))
   (not (and f13 f21))
   (not (and f23 f21))
   (= (or f19  f20 ) f15)
   (=> f5 f28)
   (=> f10 f28)
   (=> f25 f28)
   (=> f17 f28)
   (=> f16 f28)
   (=> f24 f28)
   (=> f2 f0)
   (=> f12 f0)
   (=> f8 f0)
   (=> f4 f0)
   (=> f27 f0)
   (=> f11 f0)
   (=> f22 f0)
   (=> f1 f0)
   (=> f7 f0)
   (=> f9 f0)
   (=> f3 f0)
   (=> f14 f0)
   (=> f26 f0)
   (=> f6 f0)
))

(assert f0)
(assert (and 
    (not (and f11 f11))
))
(check-sat)